ilp_joint_2/output/absorption_ilp.lp
Maximize
  3.6009468857473026e-04 Z_133_1_0 + 0.00238665638288704 Z_133_1_1
   + 0.4797263925270717 Z_133_1_2 + 0.00117669241565191 Z_133_1_3
Subject To
 constraint1_1331: Z_133_1_0 + Z_133_1_1 + Z_133_1_2 + Z_133_1_3 <= 1
 constraint2_1330: Z_133_1_0 <= 1
 constraint2_1331: Z_133_1_1 <= 1
 constraint2_1332: Z_133_1_2 <= 1
 constraint2_1333: Z_133_1_3 <= 1
Bounds
Binaries
 Z_133_1_0 Z_133_1_1 Z_133_1_2 Z_133_1_3
End
