ilp_joint_2/output/absorption_ilp.sol
# Solution for model absorption_srl_ilp
# Objective value = 4.7972639252707172e-01
Z_133_1_0 0
Z_133_1_1 0
Z_133_1_2 1
Z_133_1_3 0
